NAME : A-n38-k5-20
TYPE : VRP-D
DIMENSION : 20
CAPACITY : 100
NODE_COORD_SECTION 
 1 69 63
 2 3 35
 3 71 79
 4 1 47
 5 11 15
 6 87 23
 7 37 33
 8 87 29
 9 35 81
 10 55 71
 11 41 51
 12 93 9
 13 11 49
 14 75 89
 15 75 69
 16 97 95
 17 15 13
 18 63 95
 19 47 41
 20 45 41
DEMAND_SECTION 
1 0 
2 12 
3 5 
4 8 
5 12 
6 18 
7 12 
8 11 
9 19 
10 23 
11 8 
12 25 
13 1 
14 5 
15 17 
16 13 
17 9 
18 13 
19 19 
20 5 
DEPOT_SECTION 
 1  
 -1  
EOF 
